(declare-fun Invar (Int Int) Bool)
(assert (Invar 0 1))
(assert (forall ((x Int) (y Int))
	(=> (and (Invar x y) (< x 3)) (Invar (+ x 3) (+ y 1)))))
(assert (forall ((x Int) (y Int ))
	(=> (and (Invar x y) (>= x 3)) (< y 3))))
(check-sat-using (then qe smt))
(get-model)
(exit)